Minimize
    r
Subject to
    dems1d1 : xs1t1d1 + xs1t2d1 + xs1t3d1 = 40
    dems1d2 : xs1t1d2 + xs1t2d2 + xs1t3d2 = 30
    dems1d3 : xs1t1d3 + xs1t2d3 + xs1t3d3 = 20
    dems1d4 : xs1t1d4 + xs1t2d4 + xs1t3d4 = 10
    dems2d1 : xs2t1d1 + xs2t2d1 + xs2t3d1 = 10
    dems2d2 : xs2t1d2 + xs2t2d2 + xs2t3d2 = 60
    dems2d3 : xs2t1d3 + xs2t2d3 + xs2t3d3 = 20
    dems2d4 : xs2t1d4 + xs2t2d4 + xs2t3d4 = 40
    dems3d1 : xs3t1d1 + xs3t2d1 + xs3t3d1 = 20
    dems3d2 : xs3t1d2 + xs3t2d2 + xs3t3d2 = 20
    dems3d3 : xs3t1d3 + xs3t2d3 + xs3t3d3 = 20
    dems3d4 : xs3t1d4 + xs3t2d4 + xs3t3d4 = 20
    dems4d1 : xs4t1d1 + xs4t2d1 + xs4t3d1 = 70
    dems4d2 : xs4t1d2 + xs4t2d2 + xs4t3d2 = 30
    dems4d3 : xs4t1d3 + xs4t2d3 + xs4t3d3 = 50
    dems4d4 : xs4t1d4 + xs4t2d4 + xs4t3d4 = 10
    caps1t1 : xs1t1d1 + xs1t1d2 + xs1t1d3 + xs1t1d4 - 100r <= 0
    caps1t2 : xs1t2d1 + xs1t2d2 + xs1t2d3 + xs1t2d4 - 100r <= 0
    caps1t3 : xs1t3d1 + xs1t3d2 + xs1t3d3 + xs1t3d4 - 100r <= 0
    caps2t1 : xs2t1d1 + xs2t1d2 + xs2t1d3 + xs2t1d4 - 100r <= 0
    caps2t2 : xs2t2d1 + xs2t2d2 + xs2t2d3 + xs2t2d4 - 100r <= 0
    caps2t3 : xs2t3d1 + xs2t3d2 + xs2t3d3 + xs2t3d4 - 100r <= 0
    caps3t1 : xs3t1d1 + xs3t1d2 + xs3t1d3 + xs3t1d4 - 100r <= 0
    caps3t2 : xs3t2d1 + xs3t2d2 + xs3t2d3 + xs3t2d4 - 100r <= 0
    caps3t3 : xs3t3d1 + xs3t3d2 + xs3t3d3 + xs3t3d4 - 100r <= 0
    caps4t1 : xs4t1d1 + xs4t1d2 + xs4t1d3 + xs4t1d4 - 100r <= 0
    caps4t2 : xs4t2d1 + xs4t2d2 + xs4t2d3 + xs4t2d4 - 100r <= 0
    caps4t3 : xs4t3d1 + xs4t3d2 + xs4t3d3 + xs4t3d4 - 100r <= 0
    capt1d1 : xs1t1d1 + xs2t1d1 + xs3t1d1 + xs4t1d1 - 100r <= 0
    capt2d1 : xs1t2d1 + xs2t2d1 + xs3t2d1 + xs4t2d1 - 100r <= 0
    capt3d1 : xs1t3d1 + xs2t3d1 + xs3t3d1 + xs4t3d1 - 100r <= 0
    capt1d2 : xs1t1d2 + xs2t1d2 + xs3t1d2 + xs4t1d2 - 100r <= 0
    capt2d2 : xs1t2d2 + xs2t2d2 + xs3t2d2 + xs4t2d2 - 100r <= 0
    capt3d2 : xs1t3d2 + xs2t3d2 + xs3t3d2 + xs4t3d2 - 100r <= 0
    capt1d3 : xs1t1d3 + xs2t1d3 + xs3t1d3 + xs4t1d3 - 100r <= 0
    capt2d3 : xs1t2d3 + xs2t2d3 + xs3t2d3 + xs4t2d3 - 100r <= 0
    capt3d3 : xs1t3d3 + xs2t3d3 + xs3t3d3 + xs4t3d3 - 100r <= 0
    capt1d4 : xs1t1d4 + xs2t1d4 + xs3t1d4 + xs4t1d4 - 100r <= 0
    capt2d4 : xs1t2d4 + xs2t2d4 + xs3t2d4 + xs4t2d4 - 100r <= 0
    capt3d4 : xs1t3d4 + xs2t3d4 + xs3t3d4 + xs4t3d4 - 100r <= 0
Bounds
    xs1t1d1 >= 0
    xs2t1d1 >= 0
    xs3t1d1 >= 0
    xs4t1d1 >= 0
    xs1t2d1 >= 0
    xs2t2d1 >= 0
    xs3t2d1 >= 0
    xs4t2d1 >= 0
    xs1t3d1 >= 0
    xs2t3d1 >= 0
    xs3t3d1 >= 0
    xs4t3d1 >= 0
    xs1t1d2 >= 0
    xs2t1d2 >= 0
    xs3t1d2 >= 0
    xs4t1d2 >= 0
    xs1t2d2 >= 0
    xs2t2d2 >= 0
    xs3t2d2 >= 0
    xs4t2d2 >= 0
    xs1t3d2 >= 0
    xs2t3d2 >= 0
    xs3t3d2 >= 0
    xs4t3d2 >= 0
    xs1t1d3 >= 0
    xs2t1d3 >= 0
    xs3t1d3 >= 0
    xs4t1d3 >= 0
    xs1t2d3 >= 0
    xs2t2d3 >= 0
    xs3t2d3 >= 0
    xs4t2d3 >= 0
    xs1t3d3 >= 0
    xs2t3d3 >= 0
    xs3t3d3 >= 0
    xs4t3d3 >= 0
    xs1t1d4 >= 0
    xs2t1d4 >= 0
    xs3t1d4 >= 0
    xs4t1d4 >= 0
    xs1t2d4 >= 0
    xs2t2d4 >= 0
    xs3t2d4 >= 0
    xs4t2d4 >= 0
    xs1t3d4 >= 0
    xs2t3d4 >= 0
    xs3t3d4 >= 0
    xs4t3d4 >= 0
End